40 70
31 30 29 28 27 26 25 24 33 22 31 29 17 15 16 15 23 21 19 9
43 41 39 38 37 36 35 34 23 32 21 18 27 24 25 24 14 12 11 17
500 480 460 440 420 410 400 380 360 340 320 300 280 240 260 240 220 180 160 140